# Objective value = 23
WA1n 0
WA1p 0
WA2n 1
WA2p 0
WB1n 0
WB1p 0
WB2n 1
WB2p 0
WC1n 1
WC1p 0
WD1n 1
WD1p 0
WE1n 1
WE1p 0
WF1n 0
WF1p 1
WG1n 0
WG1p 5
WG2n 0
WG2p 0
WH1n 6
WH1p 0
WH2n 0
WH2p 0
WT1n 4
WT1p 0
100 107
a 1
b 1
c 1
d 1
e 1
f 1
g 1
h 1
i 1
j 1
k 1
l 1
m 1
